(set-info :source |printed by MathSAT|)
(declare-fun A_3 () Int)
(declare-fun .x.434 () Int)
(declare-fun B_3 () Int)
(declare-fun .x.435 () Int)
(declare-fun C_3 () Int)
(declare-fun .x.436 () Int)
(declare-fun D_3 () (Array Int Int))
(declare-fun .x.437 () (Array Int Int))
(declare-fun E_3 () (Array Int Int))
(declare-fun .x.438 () (Array Int Int))
(declare-fun F_3 () Int)
(declare-fun .x.439 () Int)
(declare-fun G_3 () Int)
(declare-fun .x.440 () Int)
(declare-fun H_3 () (Array Int Int))
(declare-fun .x.441 () (Array Int Int))
(declare-fun I_3 () (Array Int Int))
(declare-fun .x.442 () (Array Int Int))
(declare-fun J_3 () Int)
(declare-fun .x.443 () Int)
(declare-fun K_3 () Int)
(declare-fun .x.444 () Int)
(declare-fun L_3 () Int)
(declare-fun .x.445 () Int)
(declare-fun M_3 () Int)
(declare-fun .x.446 () Int)
(declare-fun N_3 () Int)
(declare-fun .x.447 () Int)
(declare-fun O_3 () Int)
(declare-fun .x.448 () Int)
(declare-fun P_3 () Int)
(declare-fun .x.449 () Int)
(declare-fun Q_3 () Int)
(declare-fun .x.450 () Int)
(declare-fun R_3 () Int)
(declare-fun .x.451 () Int)
(declare-fun S_3 () Int)
(declare-fun .x.452 () Int)
(declare-fun T_3 () Int)
(declare-fun .x.453 () Int)
(declare-fun U_3 () Int)
(declare-fun .x.454 () Int)
(declare-fun V_3 () Int)
(declare-fun .x.455 () Int)
(declare-fun W_3 () Int)
(declare-fun .x.456 () Int)
(declare-fun X_3 () Int)
(declare-fun .x.457 () Int)
(declare-fun Y_3 () Int)
(declare-fun .x.458 () Int)
(declare-fun Z_3 () Int)
(declare-fun .x.459 () Int)
(declare-fun A1_3 () Int)
(declare-fun .x.460 () Int)
(declare-fun B1_3 () Int)
(declare-fun .x.461 () Int)
(declare-fun C1_3 () Int)
(declare-fun .x.462 () Int)
(declare-fun D1_3 () Int)
(declare-fun .x.463 () Int)
(declare-fun C2_2 () Int)
(declare-fun .x.464 () Int)
(declare-fun F1_3 () Int)
(declare-fun .x.465 () Int)
(declare-fun G1_3 () Int)
(declare-fun .x.466 () Int)
(declare-fun H1_3 () Int)
(declare-fun .x.467 () Int)
(declare-fun I1_3 () Int)
(declare-fun .x.468 () Int)
(declare-fun J1_3 () Int)
(declare-fun .x.469 () Int)
(declare-fun K1_3 () Int)
(declare-fun .x.470 () Int)
(declare-fun L1_3 () Int)
(declare-fun .x.471 () Int)
(declare-fun M1_3 () Int)
(declare-fun .x.472 () Int)
(declare-fun N1_3 () Int)
(declare-fun .x.473 () Int)
(declare-fun O1_3 () Int)
(declare-fun .x.474 () Int)
(declare-fun P1_3 () Int)
(declare-fun .x.475 () Int)
(declare-fun Q1_3 () Int)
(declare-fun .x.476 () Int)
(declare-fun R1_3 () Int)
(declare-fun .x.477 () Int)
(declare-fun S1_3 () Int)
(declare-fun .x.478 () Int)
(declare-fun T1_3 () Int)
(declare-fun .x.479 () Int)
(declare-fun U1_3 () Int)
(declare-fun .x.480 () Int)
(declare-fun V1_3 () Int)
(declare-fun .x.481 () Int)
(declare-fun W1_3 () Int)
(declare-fun .x.482 () Int)
(declare-fun X1_3 () Int)
(declare-fun .x.483 () Int)
(declare-fun Y1_3 () Int)
(declare-fun .x.484 () Int)
(declare-fun Z1_3 () Int)
(declare-fun .x.485 () Int)
(declare-fun A2_3 () Int)
(declare-fun .x.486 () Int)
(declare-fun B2_3 () Bool)
(declare-fun B2_8 () Bool)
(declare-fun .loc.3 () Bool)
(declare-fun .loc.5 () Bool)
(declare-fun .loc.4 () Bool)
(declare-fun .loc.6 () Bool)
(declare-fun C2_1 () Int)
(define-fun .def_8 () Int (! A_3 :next |.x.434|))
(define-fun .def_10 () Int (! B_3 :next |.x.435|))
(define-fun .def_12 () Int (! C_3 :next |.x.436|))
(define-fun .def_14 () (Array Int Int) (! D_3 :next |.x.437|))
(define-fun .def_16 () (Array Int Int) (! E_3 :next |.x.438|))
(define-fun .def_18 () Int (! F_3 :next |.x.439|))
(define-fun .def_20 () Int (! G_3 :next |.x.440|))
(define-fun .def_22 () (Array Int Int) (! H_3 :next |.x.441|))
(define-fun .def_24 () (Array Int Int) (! I_3 :next |.x.442|))
(define-fun .def_26 () Int (! J_3 :next |.x.443|))
(define-fun .def_28 () Int (! K_3 :next |.x.444|))
(define-fun .def_30 () Int (! L_3 :next |.x.445|))
(define-fun .def_32 () Int (! M_3 :next |.x.446|))
(define-fun .def_34 () Int (! N_3 :next |.x.447|))
(define-fun .def_36 () Int (! O_3 :next |.x.448|))
(define-fun .def_38 () Int (! P_3 :next |.x.449|))
(define-fun .def_40 () Int (! Q_3 :next |.x.450|))
(define-fun .def_42 () Int (! R_3 :next |.x.451|))
(define-fun .def_44 () Int (! S_3 :next |.x.452|))
(define-fun .def_46 () Int (! T_3 :next |.x.453|))
(define-fun .def_48 () Int (! U_3 :next |.x.454|))
(define-fun .def_50 () Int (! V_3 :next |.x.455|))
(define-fun .def_52 () Int (! W_3 :next |.x.456|))
(define-fun .def_54 () Int (! X_3 :next |.x.457|))
(define-fun .def_56 () Int (! Y_3 :next |.x.458|))
(define-fun .def_58 () Int (! Z_3 :next |.x.459|))
(define-fun .def_60 () Int (! A1_3 :next |.x.460|))
(define-fun .def_62 () Int (! B1_3 :next |.x.461|))
(define-fun .def_64 () Int (! C1_3 :next |.x.462|))
(define-fun .def_66 () Int (! D1_3 :next |.x.463|))
(define-fun .def_68 () Int (! C2_2 :next |.x.464|))
(define-fun .def_70 () Int (! F1_3 :next |.x.465|))
(define-fun .def_72 () Int (! G1_3 :next |.x.466|))
(define-fun .def_74 () Int (! H1_3 :next |.x.467|))
(define-fun .def_76 () Int (! I1_3 :next |.x.468|))
(define-fun .def_78 () Int (! J1_3 :next |.x.469|))
(define-fun .def_80 () Int (! K1_3 :next |.x.470|))
(define-fun .def_82 () Int (! L1_3 :next |.x.471|))
(define-fun .def_84 () Int (! M1_3 :next |.x.472|))
(define-fun .def_86 () Int (! N1_3 :next |.x.473|))
(define-fun .def_88 () Int (! O1_3 :next |.x.474|))
(define-fun .def_90 () Int (! P1_3 :next |.x.475|))
(define-fun .def_92 () Int (! Q1_3 :next |.x.476|))
(define-fun .def_94 () Int (! R1_3 :next |.x.477|))
(define-fun .def_96 () Int (! S1_3 :next |.x.478|))
(define-fun .def_98 () Int (! T1_3 :next |.x.479|))
(define-fun .def_100 () Int (! U1_3 :next |.x.480|))
(define-fun .def_102 () Int (! V1_3 :next |.x.481|))
(define-fun .def_104 () Int (! W1_3 :next |.x.482|))
(define-fun .def_106 () Int (! X1_3 :next |.x.483|))
(define-fun .def_108 () Int (! Y1_3 :next |.x.484|))
(define-fun .def_110 () Int (! Z1_3 :next |.x.485|))
(define-fun .def_112 () Int (! A2_3 :next |.x.486|))
(define-fun .def_114 () Bool (! B2_3 :next |B2_8|))
(define-fun .def_116 () Bool (! .loc.3 :next |.loc.5|))
(define-fun .def_118 () Bool (! .loc.4 :next |.loc.6|))
(define-fun .def_318 () Int (! C2_1 :next |.xtv.1|))
(define-fun .def_231 () Bool (not .def_116))
(define-fun .def_169 () Bool (not .def_118))
(define-fun .def_464 () Bool (and .def_169 .def_231))
(define-fun .def_456 () Bool (= .def_22 .def_24))
(define-fun .def_455 () Bool (not .def_114))
(define-fun .def_457 () Bool (and .def_455 .def_456))
(define-fun .def_454 () Bool (= .def_8 .def_10))
(define-fun .def_458 () Bool (and .def_454 .def_457))
(define-fun .def_453 () Bool (= .def_18 .def_20))
(define-fun .def_459 () Bool (and .def_453 .def_458))
(define-fun .def_452 () Bool (= .def_26 .def_28))
(define-fun .def_460 () Bool (and .def_452 .def_459))
(define-fun .def_451 () Bool (= .def_30 .def_32))
(define-fun .def_461 () Bool (and .def_451 .def_460))
(define-fun .def_450 () Bool (= .def_14 .def_16))
(define-fun .def_462 () Bool (and .def_450 .def_461))
(define-fun .def_449 () Bool (= .def_34 .def_36))
(define-fun .def_463 () Bool (and .def_449 .def_462))
(define-fun .def_465 () Bool (! (and .def_463 .def_464) :init true))
(define-fun .def_446 () Bool (= .def_84 .x.472))
(define-fun .def_444 () Bool (= .def_80 .x.470))
(define-fun .def_442 () Bool (= .def_56 .x.458))
(define-fun .def_440 () Bool (= .def_36 .x.448))
(define-fun .def_438 () Bool (= .def_32 .x.446))
(define-fun .def_436 () Bool (= .def_28 .x.444))
(define-fun .def_434 () Bool (= .def_24 .x.442))
(define-fun .def_432 () Bool (= .def_20 .x.440))
(define-fun .def_430 () Bool (= .def_16 .x.438))
(define-fun .def_428 () Bool (= .def_10 .x.435))
(define-fun .def_427 () Bool (= .def_12 .x.436))
(define-fun .def_429 () Bool (and .def_427 .def_428))
(define-fun .def_431 () Bool (and .def_429 .def_430))
(define-fun .def_433 () Bool (and .def_431 .def_432))
(define-fun .def_435 () Bool (and .def_433 .def_434))
(define-fun .def_437 () Bool (and .def_435 .def_436))
(define-fun .def_439 () Bool (and .def_437 .def_438))
(define-fun .def_441 () Bool (and .def_439 .def_440))
(define-fun .def_443 () Bool (and .def_441 .def_442))
(define-fun .def_445 () Bool (and .def_443 .def_444))
(define-fun .def_447 () Bool (and .def_445 .def_446))
(define-fun .def_177 () Bool (= .x.443 1))
(define-fun .def_415 () Bool (not .def_177))
(define-fun .def_416 () Bool (or .def_114 .def_415))
(define-fun .def_224 () (Array Int Int) (store .def_14 .x.474 1))
(define-fun .def_225 () Bool (= .x.437 .def_224))
(define-fun .def_221 () (Array Int Int) (store .def_22 .x.474 100))
(define-fun .def_222 () Bool (= .x.441 .def_221))
(define-fun .def_217 () Int (select .def_14 .x.474))
(define-fun .def_218 () Bool (= .def_217 0))
(define-fun .def_215 () Bool (= .x.451 .x.475))
(define-fun .def_213 () Bool (= .x.456 .x.459))
(define-fun .def_211 () Bool (= .x.460 .x.466))
(define-fun .def_209 () Bool (= .x.466 .x.474))
(define-fun .def_207 () Bool (= .x.456 .x.464))
(define-fun .def_205 () Bool (= .x.469 .x.479))
(define-fun .def_202 () Bool (= .x.474 0))
(define-fun .def_203 () Bool (not .def_202))
(define-fun .def_200 () Bool (= .x.475 99))
(define-fun .def_197 () Bool (= .x.452 .x.479))
(define-fun .def_195 () Bool (= .x.483 0))
(define-fun .def_192 () Bool (= .x.460 .x.461))
(define-fun .def_190 () Bool (= .x.457 .x.459))
(define-fun .def_188 () Bool (= .x.452 .x.483))
(define-fun .def_186 () Bool (<= (- 2147483648) .x.464))
(define-fun .def_182 () Bool (<= .x.474 .x.436))
(define-fun .def_183 () Bool (not .def_182))
(define-fun .def_181 () Bool (<= .x.464 2147483647))
(define-fun .def_184 () Bool (and .def_181 .def_183))
(define-fun .def_187 () Bool (and .def_184 .def_186))
(define-fun .def_189 () Bool (and .def_187 .def_188))
(define-fun .def_191 () Bool (and .def_189 .def_190))
(define-fun .def_193 () Bool (and .def_191 .def_192))
(define-fun .def_196 () Bool (and .def_193 .def_195))
(define-fun .def_198 () Bool (and .def_196 .def_197))
(define-fun .def_201 () Bool (and .def_198 .def_200))
(define-fun .def_204 () Bool (and .def_201 .def_203))
(define-fun .def_206 () Bool (and .def_204 .def_205))
(define-fun .def_208 () Bool (and .def_206 .def_207))
(define-fun .def_210 () Bool (and .def_208 .def_209))
(define-fun .def_212 () Bool (and .def_210 .def_211))
(define-fun .def_214 () Bool (and .def_212 .def_213))
(define-fun .def_216 () Bool (and .def_214 .def_215))
(define-fun .def_219 () Bool (and .def_216 .def_218))
(define-fun .def_223 () Bool (and .def_219 .def_222))
(define-fun .def_226 () Bool (and .def_223 .def_225))
(define-fun .def_413 () Bool (or .def_114 .def_226))
(define-fun .def_122 () Bool (= .x.464 .def_74))
(define-fun .def_123 () Bool (or .def_114 .def_122))
(define-fun .def_408 () Bool (and B2_8 .def_123))
(define-fun .def_134 () Bool (= .def_40 .x.450))
(define-fun .def_409 () Bool (and .def_134 .def_408))
(define-fun .def_150 () Bool (= .def_82 .x.471))
(define-fun .def_410 () Bool (and .def_150 .def_409))
(define-fun .def_160 () Bool (= .def_100 .x.480))
(define-fun .def_411 () Bool (and .def_160 .def_410))
(define-fun .def_166 () Bool (= .def_108 .x.484))
(define-fun .def_412 () Bool (and .def_166 .def_411))
(define-fun .def_414 () Bool (and .def_412 .def_413))
(define-fun .def_417 () Bool (and .def_414 .def_416))
(define-fun .def_418 () Bool (and .def_116 .def_417))
(define-fun .def_419 () Bool (and .def_169 .def_418))
(define-fun .def_404 () Bool (<= .x.453 2147483647))
(define-fun .def_403 () Bool (<= (- 2147483648) .x.453))
(define-fun .def_405 () Bool (and .def_403 .def_404))
(define-fun .def_406 () Bool (or .def_114 .def_405))
(define-fun .def_401 () Bool (= .def_14 .x.437))
(define-fun .def_399 () Bool (= .def_22 .x.441))
(define-fun .def_396 () Bool (= .def_44 .x.452))
(define-fun .def_394 () Bool (= .def_52 .x.456))
(define-fun .def_388 () Bool (= .def_68 .x.464))
(define-fun .def_386 () Bool (= .def_72 .x.466))
(define-fun .def_383 () Bool (= .def_88 .x.474))
(define-fun .def_379 () Bool (= .def_106 .x.483))
(define-fun .def_377 () Bool (= .def_112 .x.486))
(define-fun .def_364 () Real (* (/ 1 4294967296) (to_real .x.453)))
(define-fun .def_365 () Int (to_int .def_364))
(define-fun .def_367 () Int (* (- 4294967296) .def_365))
(define-fun .def_368 () Int (+ .x.453 .def_367))
(define-fun .def_369 () Int (+ (- 4294967296) .def_368))
(define-fun .def_370 () Bool (<= .def_368 2147483647))
(define-fun .def_371 () Int (ite .def_370 .def_368 .def_369))
(define-fun .def_372 () Bool (= .x.450 .def_371))
(define-fun .def_362 () Bool (= .x.480 0))
(define-fun .def_373 () Bool (and .def_362 .def_372))
(define-fun .def_374 () Bool (or B2_8 .def_373))
(define-fun .def_360 () Bool (and .def_118 .def_231))
(define-fun .def_358 () Bool (= .x.471 .x.480))
(define-fun .def_359 () Bool (or B2_8 .def_358))
(define-fun .def_361 () Bool (and .def_359 .def_360))
(define-fun .def_375 () Bool (and .def_361 .def_374))
(define-fun .def_172 () Bool (= .def_114 B2_8))
(define-fun .def_376 () Bool (and .def_172 .def_375))
(define-fun .def_378 () Bool (and .def_376 .def_377))
(define-fun .def_380 () Bool (and .def_378 .def_379))
(define-fun .def_234 () Bool (= .def_98 .x.479))
(define-fun .def_381 () Bool (and .def_234 .def_380))
(define-fun .def_236 () Bool (= .def_90 .x.475))
(define-fun .def_382 () Bool (and .def_236 .def_381))
(define-fun .def_384 () Bool (and .def_382 .def_383))
(define-fun .def_238 () Bool (= .def_78 .x.469))
(define-fun .def_385 () Bool (and .def_238 .def_384))
(define-fun .def_387 () Bool (and .def_385 .def_386))
(define-fun .def_389 () Bool (and .def_387 .def_388))
(define-fun .def_240 () Bool (= .def_62 .x.461))
(define-fun .def_390 () Bool (and .def_240 .def_389))
(define-fun .def_242 () Bool (= .def_60 .x.460))
(define-fun .def_391 () Bool (and .def_242 .def_390))
(define-fun .def_244 () Bool (= .def_58 .x.459))
(define-fun .def_392 () Bool (and .def_244 .def_391))
(define-fun .def_246 () Bool (= .def_54 .x.457))
(define-fun .def_393 () Bool (and .def_246 .def_392))
(define-fun .def_395 () Bool (and .def_393 .def_394))
(define-fun .def_397 () Bool (and .def_395 .def_396))
(define-fun .def_248 () Bool (= .def_42 .x.451))
(define-fun .def_398 () Bool (and .def_248 .def_397))
(define-fun .def_400 () Bool (and .def_398 .def_399))
(define-fun .def_402 () Bool (and .def_400 .def_401))
(define-fun .def_407 () Bool (and .def_402 .def_406))
(define-fun .def_420 () Bool (or .def_407 .def_419))
(define-fun .def_421 () Bool (and .loc.5 .def_420))
(define-fun .def_349 () Bool (and .def_114 B2_8))
(define-fun .def_350 () Bool (and .def_123 .def_349))
(define-fun .def_351 () Bool (and .def_134 .def_350))
(define-fun .def_352 () Bool (and .def_150 .def_351))
(define-fun .def_353 () Bool (and .def_160 .def_352))
(define-fun .def_354 () Bool (and .def_166 .def_353))
(define-fun .def_355 () Bool (and .def_116 .def_354))
(define-fun .def_356 () Bool (and .def_169 .def_355))
(define-fun .def_174 () Bool (not .loc.5))
(define-fun .def_357 () Bool (and .def_174 .def_356))
(define-fun .def_422 () Bool (or .def_357 .def_421))
(define-fun .def_121 () Bool (= .def_8 .x.434))
(define-fun .def_120 () Bool (= .def_18 .x.439))
(define-fun .def_330 () Bool (and .def_120 .def_121))
(define-fun .def_126 () Bool (= .def_26 .x.443))
(define-fun .def_331 () Bool (and .def_126 .def_330))
(define-fun .def_128 () Bool (= .def_30 .x.445))
(define-fun .def_332 () Bool (and .def_128 .def_331))
(define-fun .def_130 () Bool (= .def_34 .x.447))
(define-fun .def_333 () Bool (and .def_130 .def_332))
(define-fun .def_132 () Bool (= .def_38 .x.449))
(define-fun .def_334 () Bool (and .def_132 .def_333))
(define-fun .def_136 () Bool (= .def_48 .x.454))
(define-fun .def_335 () Bool (and .def_136 .def_334))
(define-fun .def_138 () Bool (= .def_50 .x.455))
(define-fun .def_336 () Bool (and .def_138 .def_335))
(define-fun .def_140 () Bool (= .def_64 .x.462))
(define-fun .def_337 () Bool (and .def_140 .def_336))
(define-fun .def_142 () Bool (= .def_66 .x.463))
(define-fun .def_338 () Bool (and .def_142 .def_337))
(define-fun .def_144 () Bool (= .def_70 .x.465))
(define-fun .def_339 () Bool (and .def_144 .def_338))
(define-fun .def_146 () Bool (= .def_74 .x.467))
(define-fun .def_340 () Bool (and .def_146 .def_339))
(define-fun .def_148 () Bool (= .def_76 .x.468))
(define-fun .def_341 () Bool (and .def_148 .def_340))
(define-fun .def_152 () Bool (= .def_86 .x.473))
(define-fun .def_342 () Bool (and .def_152 .def_341))
(define-fun .def_154 () Bool (= .def_92 .x.476))
(define-fun .def_343 () Bool (and .def_154 .def_342))
(define-fun .def_156 () Bool (= .def_94 .x.477))
(define-fun .def_344 () Bool (and .def_156 .def_343))
(define-fun .def_158 () Bool (= .def_96 .x.478))
(define-fun .def_345 () Bool (and .def_158 .def_344))
(define-fun .def_162 () Bool (= .def_102 .x.481))
(define-fun .def_346 () Bool (and .def_162 .def_345))
(define-fun .def_164 () Bool (= .def_104 .x.482))
(define-fun .def_347 () Bool (and .def_164 .def_346))
(define-fun .def_348 () Bool (and .loc.6 .def_347))
(define-fun .def_423 () Bool (and .def_348 .def_422))
(define-fun .def_319 () Bool (= .def_318 0))
(define-fun .def_292 () Bool (= .x.439 0))
(define-fun .def_289 () Bool (<= .def_12 .x.434))
(define-fun .def_290 () Bool (not .def_289))
(define-fun .def_287 () Bool (= .x.434 0))
(define-fun .def_288 () Bool (not .def_287))
(define-fun .def_291 () Bool (and .def_288 .def_290))
(define-fun .def_293 () Bool (and .def_291 .def_292))
(define-fun .def_320 () Bool (and .def_293 .def_319))
(define-fun .def_295 () Bool (= .x.445 0))
(define-fun .def_321 () Bool (and .def_295 .def_320))
(define-fun .def_297 () Bool (= .x.447 0))
(define-fun .def_322 () Bool (and .def_297 .def_321))
(define-fun .def_299 () Int (select .def_14 .x.434))
(define-fun .def_300 () Int (ite .def_287 0 .def_299))
(define-fun .def_301 () Bool (= .def_300 0))
(define-fun .def_323 () Bool (and .def_301 .def_322))
(define-fun .def_304 () (Array Int Int) (store .def_22 .x.434 8))
(define-fun .def_305 () Bool (= .x.441 .def_304))
(define-fun .def_324 () Bool (and .def_305 .def_323))
(define-fun .def_307 () (Array Int Int) (store .def_14 0 0))
(define-fun .def_308 () (Array Int Int) (store .def_307 .x.434 1))
(define-fun .def_309 () Bool (= .x.437 .def_308))
(define-fun .def_325 () Bool (and .def_309 .def_324))
(define-fun .def_326 () Bool (or .def_114 .def_325))
(define-fun .def_283 () Bool (<= .x.467 0))
(define-fun .def_313 () Bool (not .def_283))
(define-fun .def_314 () Bool (and .def_177 .def_313))
(define-fun .def_315 () Bool (or B2_8 .def_314))
(define-fun .def_250 () Bool (not .loc.6))
(define-fun .def_229 () Bool (and .def_150 .def_169))
(define-fun .def_230 () Bool (and .loc.5 .def_229))
(define-fun .def_232 () Bool (and .def_230 .def_231))
(define-fun .def_233 () Bool (and .def_172 .def_232))
(define-fun .def_235 () Bool (and .def_233 .def_234))
(define-fun .def_237 () Bool (and .def_235 .def_236))
(define-fun .def_239 () Bool (and .def_237 .def_238))
(define-fun .def_241 () Bool (and .def_239 .def_240))
(define-fun .def_243 () Bool (and .def_241 .def_242))
(define-fun .def_245 () Bool (and .def_243 .def_244))
(define-fun .def_247 () Bool (and .def_245 .def_246))
(define-fun .def_249 () Bool (and .def_247 .def_248))
(define-fun .def_251 () Bool (and .def_249 .def_250))
(define-fun .def_316 () Bool (and .def_251 .def_315))
(define-fun .def_269 () Bool (= .x.434 .x.477))
(define-fun .def_267 () Bool (= .x.465 .x.478))
(define-fun .def_265 () Bool (= .x.477 .x.481))
(define-fun .def_263 () Bool (= .x.455 .x.467))
(define-fun .def_261 () Bool (= .x.463 .x.473))
(define-fun .def_259 () Bool (= .x.449 .x.476))
(define-fun .def_258 () Bool (= .x.454 0))
(define-fun .def_260 () Bool (and .def_258 .def_259))
(define-fun .def_262 () Bool (and .def_260 .def_261))
(define-fun .def_264 () Bool (and .def_262 .def_263))
(define-fun .def_266 () Bool (and .def_264 .def_265))
(define-fun .def_268 () Bool (and .def_266 .def_267))
(define-fun .def_270 () Bool (and .def_268 .def_269))
(define-fun .def_257 () Bool (= .x.458 .x.476))
(define-fun .def_271 () Bool (and .def_257 .def_270))
(define-fun .def_256 () Bool (= .x.472 .x.473))
(define-fun .def_272 () Bool (and .def_256 .def_271))
(define-fun .def_255 () Bool (= .x.468 .x.482))
(define-fun .def_273 () Bool (and .def_255 .def_272))
(define-fun .def_254 () Bool (= .x.470 .x.482))
(define-fun .def_274 () Bool (and .def_254 .def_273))
(define-fun .def_253 () Bool (= .x.447 .x.465))
(define-fun .def_275 () Bool (and .def_253 .def_274))
(define-fun .def_252 () Bool (= .x.454 .x.462))
(define-fun .def_276 () Bool (and .def_252 .def_275))
(define-fun .def_277 () Bool (or B2_8 .def_276))
(define-fun .def_317 () Bool (and .def_277 .def_316))
(define-fun .def_327 () Bool (and .def_317 .def_326))
(define-fun .def_279 () Bool (= .def_46 .x.453))
(define-fun .def_328 () Bool (and .def_279 .def_327))
(define-fun .def_281 () Bool (= .def_110 .x.485))
(define-fun .def_329 () Bool (and .def_281 .def_328))
(define-fun .def_424 () Bool (or .def_329 .def_423))
(define-fun .def_286 () Bool (= .x.443 0))
(define-fun .def_294 () Bool (and .def_286 .def_293))
(define-fun .def_296 () Bool (and .def_294 .def_295))
(define-fun .def_298 () Bool (and .def_296 .def_297))
(define-fun .def_302 () Bool (and .def_298 .def_301))
(define-fun .def_306 () Bool (and .def_302 .def_305))
(define-fun .def_310 () Bool (and .def_306 .def_309))
(define-fun .def_311 () Bool (or .def_114 .def_310))
(define-fun .def_284 () Bool (or B2_8 .def_283))
(define-fun .def_278 () Bool (and .def_251 .def_277))
(define-fun .def_280 () Bool (and .def_278 .def_279))
(define-fun .def_282 () Bool (and .def_280 .def_281))
(define-fun .def_285 () Bool (and .def_282 .def_284))
(define-fun .def_312 () Bool (and .def_285 .def_311))
(define-fun .def_425 () Bool (or .def_312 .def_424))
(define-fun .def_227 () Bool (or B2_8 .def_226))
(define-fun .def_178 () Bool (or B2_8 .def_177))
(define-fun .def_124 () Bool (and .def_121 .def_123))
(define-fun .def_125 () Bool (and .def_120 .def_124))
(define-fun .def_127 () Bool (and .def_125 .def_126))
(define-fun .def_129 () Bool (and .def_127 .def_128))
(define-fun .def_131 () Bool (and .def_129 .def_130))
(define-fun .def_133 () Bool (and .def_131 .def_132))
(define-fun .def_135 () Bool (and .def_133 .def_134))
(define-fun .def_137 () Bool (and .def_135 .def_136))
(define-fun .def_139 () Bool (and .def_137 .def_138))
(define-fun .def_141 () Bool (and .def_139 .def_140))
(define-fun .def_143 () Bool (and .def_141 .def_142))
(define-fun .def_145 () Bool (and .def_143 .def_144))
(define-fun .def_147 () Bool (and .def_145 .def_146))
(define-fun .def_149 () Bool (and .def_147 .def_148))
(define-fun .def_151 () Bool (and .def_149 .def_150))
(define-fun .def_153 () Bool (and .def_151 .def_152))
(define-fun .def_155 () Bool (and .def_153 .def_154))
(define-fun .def_157 () Bool (and .def_155 .def_156))
(define-fun .def_159 () Bool (and .def_157 .def_158))
(define-fun .def_161 () Bool (and .def_159 .def_160))
(define-fun .def_163 () Bool (and .def_161 .def_162))
(define-fun .def_165 () Bool (and .def_163 .def_164))
(define-fun .def_167 () Bool (and .def_165 .def_166))
(define-fun .def_168 () Bool (and .def_116 .def_167))
(define-fun .def_170 () Bool (and .def_168 .def_169))
(define-fun .def_171 () Bool (and .loc.6 .def_170))
(define-fun .def_173 () Bool (and .def_171 .def_172))
(define-fun .def_175 () Bool (and .def_173 .def_174))
(define-fun .def_179 () Bool (and .def_175 .def_178))
(define-fun .def_228 () Bool (and .def_179 .def_227))
(define-fun .def_426 () Bool (or .def_228 .def_425))
(define-fun .def_448 () Bool (! (and .def_426 .def_447) :trans true))
(define-fun .def_466 () Bool (and .def_116 .def_118))
(define-fun .def_467 () Bool (and .def_114 .def_466))
(define-fun .def_468 () Bool (! (not .def_467) :invar-property 0))
(assert true)
